Maximize
  - 1.0358511325812 edge_0_3_0_0 - 3.1831673348076 edge_0_6_0_0
   - 3.8202393123568 edge_0_8_0_0 - 4.144562692257001 edge_0_15_0_0
   - 5.3459675024771 edge_0_16_0_0 - 1.8430101918403 edge_0_20_0_0
   + 0.2604168134326907 edge_3_5_0_0 + 1.174293526444715 edge_3_6_0_0
   + 1.229858665499842 edge_3_7_0_0 + 0.8352916263896801 edge_3_8_0_0
   + 0.8591057807967448 edge_3_9_0_0 + 0.9897930978613911 edge_3_10_0_0
   - 0.00193657978971863 edge_3_12_0_0 - 0.4603156119063093 edge_3_14_0_0
   - 0.3141685988211452 edge_3_15_0_0 + 0.4203151526747271 edge_3_16_0_0
   - 0.4091506049336134 edge_3_18_0_0 - 0.3900627061795243 edge_3_20_0_0
   + 0.0545356543414778 edge_3_22_0_0 + 1.923002143973892 edge_3_42_0_0
   - 0.1865204644082399 edge_5_3_0_0 + 0.1756186562850634 edge_5_7_0_0
   - 0.2835348699001842 edge_5_8_0_0 + 0.3067921359267102 edge_6_3_0_0
   + 3.190072422753473 edge_6_5_0_0 + 0.8248751974336243 edge_6_7_0_0
   + 0.2859254741728654 edge_6_8_0_0 + 0.1845102486969995 edge_6_9_0_0
   - 0.3392618646198632 edge_6_10_0_0 - 0.5256054510748895 edge_6_12_0_0
   - 1.793202356052994 edge_6_14_0_0 - 0.5508497251023979 edge_6_15_0_0
   - 0.3604160156064485 edge_6_16_0_0 + 2.074164019875646 edge_6_42_0_0
   - 0.9254754567657557 edge_7_6_0_0 - 0.5409468372102317 edge_7_8_0_0
   - 0.3037904544805801 edge_7_9_0_0 + 0.1632486966221904 edge_7_10_0_0
   - 0.2826864384503119 edge_8_3_0_0 - 0.5696862021702851 edge_8_6_0_0
   + 0.2157339810959964 edge_8_7_0_0 + 1.605015496673159 edge_8_9_0_0
   + 1.63319565258073 edge_8_10_0_0 + 0.1765947871274526 edge_8_12_0_0
   - 0.642763790276897 edge_8_14_0_0 - 0.252559165605242 edge_8_15_0_0
   + 0.5753762576898449 edge_8_16_0_0 - 0.5376662715342937 edge_8_18_0_0
   - 0.8309816303382795 edge_8_20_0_0 + 0.0194067155843836 edge_8_22_0_0
   + 2.86691037632204 edge_8_42_0_0 - 0.8515061310350288 edge_9_8_0_0
   - 0.1451707494145679 edge_9_10_0_0 - 1.386101067149763 edge_10_8_0_0
   - 0.3202556733766462 edge_10_9_0_0 - 0.8390942592422017 edge_10_12_0_0
   - 0.9545732153287405 edge_10_14_0_0 - 0.3379880302317156 edge_12_3_0_0
   - 1.156930151530941 edge_12_6_0_0 + 0.2074406270617741 edge_12_9_0_0
   + 0.0394460718081384 edge_12_10_0_0 + 0.2524371145421387 edge_12_13_0_0
   + 1.089891996975001 edge_12_14_0_0 + 1.246394840918625 edge_12_15_0_0
   + 0.3675123987942541 edge_12_16_0_0 - 0.00633772972444988 edge_12_17_0_0
   - 0.0214752074539739 edge_12_18_0_0 - 0.0986403290923465 edge_12_20_0_0
   - 0.1289197394190541 edge_12_22_0_0 + 0.5380858336136086 edge_12_42_0_0
   - 0.3498534050979905 edge_13_14_0_0 - 0.2195312541224376 edge_13_15_0_0
   - 0.3690942904918963 edge_14_3_0_0 - 0.9390908917447025 edge_14_6_0_0
   - 0.710835955719105 edge_14_8_0_0 - 0.7168206830303334 edge_14_9_0_0
   - 0.5256211408481158 edge_14_10_0_0 + 1.867484641309584 edge_14_12_0_0
   - 0.0827398688385202 edge_14_13_0_0 - 0.1077895061296204 edge_14_16_0_0
   - 0.6178329710806238 edge_14_18_0_0 - 0.1416300832067488 edge_15_3_0_0
   + 0.6659788754306289 edge_15_5_0_0 - 0.8412850213117703 edge_15_6_0_0
   - 0.6621747174062448 edge_15_7_0_0 + 0.2729058594969764 edge_15_8_0_0
   + 0.443956828561932 edge_15_9_0_0 - 0.0883369495841298 edge_15_10_0_0
   + 1.36303299163113 edge_15_12_0_0 + 0.2245549846266078 edge_15_13_0_0
   + 3.73296028630883 edge_15_14_0_0 + 2.388616045854338 edge_15_16_0_0
   + 0.0146984172309644 edge_15_17_0_0 + 0.5068013718156715 edge_15_18_0_0
   - 0.1178587335424053 edge_15_20_0_0 + 0.00243667081992258 edge_15_22_0_0
   + 2.214117571368198 edge_15_42_0_0 - 0.5076199357211942 edge_16_3_0_0
   - 1.822003645196075 edge_16_6_0_0 - 1.433460230312512 edge_16_8_0_0
   - 0.8284803093883421 edge_16_9_0_0 - 1.373541911142276 edge_16_10_0_0
   - 0.2679450104442283 edge_16_12_0_0 + 0.8641663631465254 edge_16_13_0_0
   - 0.3282137498604182 edge_16_14_0_0 - 0.61773852222841 edge_16_15_0_0
   + 0.3072730980752847 edge_16_17_0_0 + 1.610228040959824 edge_16_18_0_0
   + 0.4855172632293548 edge_16_20_0_0 + 0.4596628960510666 edge_16_22_0_0
   + 0.7386074291214152 edge_16_42_0_0 + 0.7154435078613315 edge_17_18_0_0
   + 0.2747216309660667 edge_17_20_0_0 - 0.0616008054381524 edge_17_22_0_0
   - 0.5149116289468865 edge_18_12_0_0 + 0.0756743942085556 edge_18_13_0_0
   + 0.066731024005514 edge_18_14_0_0 - 0.4273685275374843 edge_18_15_0_0
   - 0.1143570089344271 edge_18_16_0_0 + 1.702604003782882 edge_18_17_0_0
   + 0.2548900899386035 edge_18_20_0_0 + 0.0794752353909147 edge_18_22_0_0
   + 0.1679525088948781 edge_18_42_0_0 - 0.3545849215799861 edge_20_3_0_0
   - 0.9965594606466402 edge_20_6_0_0 - 0.00424489855181437 edge_20_13_0_0
   + 0.3696306668993418 edge_20_17_0_0 + 0.1636180980002661 edge_20_18_0_0
   + 0.1975023483593376 edge_20_22_0_0 + 0.3727206231453897 edge_20_42_0_0
   - 0.1036729132169636 edge_22_3_0_0 - 0.2881918741209673 edge_22_6_0_0
   + 0.0112198232869409 edge_22_9_0_0 + 0.0430235159186716 edge_22_12_0_0
   + 0.0866260169860166 edge_22_13_0_0 + 0.00540800031671773 edge_22_15_0_0
   + 0.0793586859851588 edge_22_16_0_0 + 0.2474522118469301 edge_22_17_0_0
   + 0.1062112870402234 edge_22_18_0_0 + 0.2019090309625282 edge_22_20_0_0
   + 0.1993472677191979 edge_22_42_0_0 - 0.3397024839592495 edge_42_22_0_0
Subject To
 one_parent_1: = 1
 consume_one_flow_unit_1: = 1
 one_parent_2: = 1
 consume_one_flow_unit_2: = 1
 one_parent_3: edge_0_3_0_0 + edge_5_3_0_0 + edge_6_3_0_0 + edge_8_3_0_0
   + edge_12_3_0_0 + edge_14_3_0_0 + edge_15_3_0_0 + edge_16_3_0_0
   + edge_20_3_0_0 + edge_22_3_0_0 = 1
 consume_one_flow_unit_3: flow_0_3_0_0 - flow_3_5_0_0 - flow_3_6_0_0
   - flow_3_7_0_0 - flow_3_8_0_0 - flow_3_9_0_0 - flow_3_10_0_0
   - flow_3_12_0_0 - flow_3_14_0_0 - flow_3_15_0_0 - flow_3_16_0_0
   - flow_3_18_0_0 - flow_3_20_0_0 - flow_3_22_0_0 - flow_3_42_0_0
   + flow_5_3_0_0 + flow_6_3_0_0 + flow_8_3_0_0 + flow_12_3_0_0
   + flow_14_3_0_0 + flow_15_3_0_0 + flow_16_3_0_0 + flow_20_3_0_0
   + flow_22_3_0_0 = 1
 one_parent_4: = 1
 consume_one_flow_unit_4: = 1
 one_parent_5: edge_3_5_0_0 + edge_6_5_0_0 + edge_15_5_0_0 = 1
 consume_one_flow_unit_5: flow_3_5_0_0 - flow_5_3_0_0 - flow_5_7_0_0
   - flow_5_8_0_0 + flow_6_5_0_0 + flow_15_5_0_0 = 1
 one_parent_6: edge_0_6_0_0 + edge_3_6_0_0 + edge_7_6_0_0 + edge_8_6_0_0
   + edge_12_6_0_0 + edge_14_6_0_0 + edge_15_6_0_0 + edge_16_6_0_0
   + edge_20_6_0_0 + edge_22_6_0_0 = 1
 consume_one_flow_unit_6: flow_0_6_0_0 + flow_3_6_0_0 - flow_6_3_0_0
   - flow_6_5_0_0 - flow_6_7_0_0 - flow_6_8_0_0 - flow_6_9_0_0
   - flow_6_10_0_0 - flow_6_12_0_0 - flow_6_14_0_0 - flow_6_15_0_0
   - flow_6_16_0_0 - flow_6_42_0_0 + flow_7_6_0_0 + flow_8_6_0_0
   + flow_12_6_0_0 + flow_14_6_0_0 + flow_15_6_0_0 + flow_16_6_0_0
   + flow_20_6_0_0 + flow_22_6_0_0 = 1
 one_parent_7: edge_3_7_0_0 + edge_5_7_0_0 + edge_6_7_0_0 + edge_8_7_0_0
   + edge_15_7_0_0 = 1
 consume_one_flow_unit_7: flow_3_7_0_0 + flow_5_7_0_0 + flow_6_7_0_0
   - flow_7_6_0_0 - flow_7_8_0_0 - flow_7_9_0_0 - flow_7_10_0_0
   + flow_8_7_0_0 + flow_15_7_0_0 = 1
 one_parent_8: edge_0_8_0_0 + edge_3_8_0_0 + edge_5_8_0_0 + edge_6_8_0_0
   + edge_7_8_0_0 + edge_9_8_0_0 + edge_10_8_0_0 + edge_14_8_0_0
   + edge_15_8_0_0 + edge_16_8_0_0 = 1
 consume_one_flow_unit_8: flow_0_8_0_0 + flow_3_8_0_0 + flow_5_8_0_0
   + flow_6_8_0_0 + flow_7_8_0_0 - flow_8_3_0_0 - flow_8_6_0_0
   - flow_8_7_0_0 - flow_8_9_0_0 - flow_8_10_0_0 - flow_8_12_0_0
   - flow_8_14_0_0 - flow_8_15_0_0 - flow_8_16_0_0 - flow_8_18_0_0
   - flow_8_20_0_0 - flow_8_22_0_0 - flow_8_42_0_0 + flow_9_8_0_0
   + flow_10_8_0_0 + flow_14_8_0_0 + flow_15_8_0_0 + flow_16_8_0_0 = 1
 one_parent_9: edge_3_9_0_0 + edge_6_9_0_0 + edge_7_9_0_0 + edge_8_9_0_0
   + edge_10_9_0_0 + edge_12_9_0_0 + edge_14_9_0_0 + edge_15_9_0_0
   + edge_16_9_0_0 + edge_22_9_0_0 = 1
 consume_one_flow_unit_9: flow_3_9_0_0 + flow_6_9_0_0 + flow_7_9_0_0
   + flow_8_9_0_0 - flow_9_8_0_0 - flow_9_10_0_0 + flow_10_9_0_0
   + flow_12_9_0_0 + flow_14_9_0_0 + flow_15_9_0_0 + flow_16_9_0_0
   + flow_22_9_0_0 = 1
 one_parent_10: edge_3_10_0_0 + edge_6_10_0_0 + edge_7_10_0_0
   + edge_8_10_0_0 + edge_9_10_0_0 + edge_12_10_0_0 + edge_14_10_0_0
   + edge_15_10_0_0 + edge_16_10_0_0 = 1
 consume_one_flow_unit_10: flow_3_10_0_0 + flow_6_10_0_0 + flow_7_10_0_0
   + flow_8_10_0_0 + flow_9_10_0_0 - flow_10_8_0_0 - flow_10_9_0_0
   - flow_10_12_0_0 - flow_10_14_0_0 + flow_12_10_0_0 + flow_14_10_0_0
   + flow_15_10_0_0 + flow_16_10_0_0 = 1
 one_parent_11: = 1
 consume_one_flow_unit_11: = 1
 one_parent_12: edge_3_12_0_0 + edge_6_12_0_0 + edge_8_12_0_0
   + edge_10_12_0_0 + edge_14_12_0_0 + edge_15_12_0_0 + edge_16_12_0_0
   + edge_18_12_0_0 + edge_22_12_0_0 = 1
 consume_one_flow_unit_12: flow_3_12_0_0 + flow_6_12_0_0 + flow_8_12_0_0
   + flow_10_12_0_0 - flow_12_3_0_0 - flow_12_6_0_0 - flow_12_9_0_0
   - flow_12_10_0_0 - flow_12_13_0_0 - flow_12_14_0_0 - flow_12_15_0_0
   - flow_12_16_0_0 - flow_12_17_0_0 - flow_12_18_0_0 - flow_12_20_0_0
   - flow_12_22_0_0 - flow_12_42_0_0 + flow_14_12_0_0 + flow_15_12_0_0
   + flow_16_12_0_0 + flow_18_12_0_0 + flow_22_12_0_0 = 1
 one_parent_13: edge_12_13_0_0 + edge_14_13_0_0 + edge_15_13_0_0
   + edge_16_13_0_0 + edge_18_13_0_0 + edge_20_13_0_0 + edge_22_13_0_0 = 1
 consume_one_flow_unit_13: flow_12_13_0_0 - flow_13_14_0_0 - flow_13_15_0_0
   + flow_14_13_0_0 + flow_15_13_0_0 + flow_16_13_0_0 + flow_18_13_0_0
   + flow_20_13_0_0 + flow_22_13_0_0 = 1
 one_parent_14: edge_3_14_0_0 + edge_6_14_0_0 + edge_8_14_0_0
   + edge_10_14_0_0 + edge_12_14_0_0 + edge_13_14_0_0 + edge_15_14_0_0
   + edge_16_14_0_0 + edge_18_14_0_0 = 1
 consume_one_flow_unit_14: flow_3_14_0_0 + flow_6_14_0_0 + flow_8_14_0_0
   + flow_10_14_0_0 + flow_12_14_0_0 + flow_13_14_0_0 - flow_14_3_0_0
   - flow_14_6_0_0 - flow_14_8_0_0 - flow_14_9_0_0 - flow_14_10_0_0
   - flow_14_12_0_0 - flow_14_13_0_0 - flow_14_16_0_0 - flow_14_18_0_0
   + flow_15_14_0_0 + flow_16_14_0_0 + flow_18_14_0_0 = 1
 one_parent_15: edge_0_15_0_0 + edge_3_15_0_0 + edge_6_15_0_0
   + edge_8_15_0_0 + edge_12_15_0_0 + edge_13_15_0_0 + edge_16_15_0_0
   + edge_18_15_0_0 + edge_22_15_0_0 = 1
 consume_one_flow_unit_15: flow_0_15_0_0 + flow_3_15_0_0 + flow_6_15_0_0
   + flow_8_15_0_0 + flow_12_15_0_0 + flow_13_15_0_0 - flow_15_3_0_0
   - flow_15_5_0_0 - flow_15_6_0_0 - flow_15_7_0_0 - flow_15_8_0_0
   - flow_15_9_0_0 - flow_15_10_0_0 - flow_15_12_0_0 - flow_15_13_0_0
   - flow_15_14_0_0 - flow_15_16_0_0 - flow_15_17_0_0 - flow_15_18_0_0
   - flow_15_20_0_0 - flow_15_22_0_0 - flow_15_42_0_0 + flow_16_15_0_0
   + flow_18_15_0_0 + flow_22_15_0_0 = 1
 one_parent_16: edge_0_16_0_0 + edge_3_16_0_0 + edge_6_16_0_0
   + edge_8_16_0_0 + edge_12_16_0_0 + edge_14_16_0_0 + edge_15_16_0_0
   + edge_18_16_0_0 + edge_22_16_0_0 = 1
 consume_one_flow_unit_16: flow_0_16_0_0 + flow_3_16_0_0 + flow_6_16_0_0
   + flow_8_16_0_0 + flow_12_16_0_0 + flow_14_16_0_0 + flow_15_16_0_0
   - flow_16_3_0_0 - flow_16_6_0_0 - flow_16_8_0_0 - flow_16_9_0_0
   - flow_16_10_0_0 - flow_16_12_0_0 - flow_16_13_0_0 - flow_16_14_0_0
   - flow_16_15_0_0 - flow_16_17_0_0 - flow_16_18_0_0 - flow_16_20_0_0
   - flow_16_22_0_0 - flow_16_42_0_0 + flow_18_16_0_0 + flow_22_16_0_0 = 1
 one_parent_17: edge_12_17_0_0 + edge_15_17_0_0 + edge_16_17_0_0
   + edge_18_17_0_0 + edge_20_17_0_0 + edge_22_17_0_0 = 1
 consume_one_flow_unit_17: flow_12_17_0_0 + flow_15_17_0_0 + flow_16_17_0_0
   - flow_17_18_0_0 - flow_17_20_0_0 - flow_17_22_0_0 + flow_18_17_0_0
   + flow_20_17_0_0 + flow_22_17_0_0 = 1
 one_parent_18: edge_3_18_0_0 + edge_8_18_0_0 + edge_12_18_0_0
   + edge_14_18_0_0 + edge_15_18_0_0 + edge_16_18_0_0 + edge_17_18_0_0
   + edge_20_18_0_0 + edge_22_18_0_0 = 1
 consume_one_flow_unit_18: flow_3_18_0_0 + flow_8_18_0_0 + flow_12_18_0_0
   + flow_14_18_0_0 + flow_15_18_0_0 + flow_16_18_0_0 + flow_17_18_0_0
   - flow_18_12_0_0 - flow_18_13_0_0 - flow_18_14_0_0 - flow_18_15_0_0
   - flow_18_16_0_0 - flow_18_17_0_0 - flow_18_20_0_0 - flow_18_22_0_0
   - flow_18_42_0_0 + flow_20_18_0_0 + flow_22_18_0_0 = 1
 one_parent_19: = 1
 consume_one_flow_unit_19: = 1
 one_parent_20: edge_0_20_0_0 + edge_3_20_0_0 + edge_8_20_0_0
   + edge_12_20_0_0 + edge_15_20_0_0 + edge_16_20_0_0 + edge_17_20_0_0
   + edge_18_20_0_0 + edge_22_20_0_0 = 1
 consume_one_flow_unit_20: flow_0_20_0_0 + flow_3_20_0_0 + flow_8_20_0_0
   + flow_12_20_0_0 + flow_15_20_0_0 + flow_16_20_0_0 + flow_17_20_0_0
   + flow_18_20_0_0 - flow_20_3_0_0 - flow_20_6_0_0 - flow_20_13_0_0
   - flow_20_17_0_0 - flow_20_18_0_0 - flow_20_22_0_0 - flow_20_42_0_0
   + flow_22_20_0_0 = 1
 one_parent_21: = 1
 consume_one_flow_unit_21: = 1
 one_parent_22: edge_3_22_0_0 + edge_8_22_0_0 + edge_12_22_0_0
   + edge_15_22_0_0 + edge_16_22_0_0 + edge_17_22_0_0 + edge_18_22_0_0
   + edge_20_22_0_0 + edge_42_22_0_0 = 1
 consume_one_flow_unit_22: flow_3_22_0_0 + flow_8_22_0_0 + flow_12_22_0_0
   + flow_15_22_0_0 + flow_16_22_0_0 + flow_17_22_0_0 + flow_18_22_0_0
   + flow_20_22_0_0 - flow_22_3_0_0 - flow_22_6_0_0 - flow_22_9_0_0
   - flow_22_12_0_0 - flow_22_13_0_0 - flow_22_15_0_0 - flow_22_16_0_0
   - flow_22_17_0_0 - flow_22_18_0_0 - flow_22_20_0_0 - flow_22_42_0_0
   + flow_42_22_0_0 = 1
 one_parent_23: = 1
 consume_one_flow_unit_23: = 1
 one_parent_24: = 1
 consume_one_flow_unit_24: = 1
 one_parent_25: = 1
 consume_one_flow_unit_25: = 1
 one_parent_26: = 1
 consume_one_flow_unit_26: = 1
 one_parent_27: = 1
 consume_one_flow_unit_27: = 1
 one_parent_28: = 1
 consume_one_flow_unit_28: = 1
 one_parent_29: = 1
 consume_one_flow_unit_29: = 1
 one_parent_30: = 1
 consume_one_flow_unit_30: = 1
 one_parent_31: = 1
 consume_one_flow_unit_31: = 1
 one_parent_32: = 1
 consume_one_flow_unit_32: = 1
 one_parent_33: = 1
 consume_one_flow_unit_33: = 1
 one_parent_34: = 1
 consume_one_flow_unit_34: = 1
 one_parent_35: = 1
 consume_one_flow_unit_35: = 1
 one_parent_36: = 1
 consume_one_flow_unit_36: = 1
 one_parent_37: = 1
 consume_one_flow_unit_37: = 1
 one_parent_38: = 1
 consume_one_flow_unit_38: = 1
 one_parent_39: = 1
 consume_one_flow_unit_39: = 1
 one_parent_40: = 1
 consume_one_flow_unit_40: = 1
 one_parent_41: = 1
 consume_one_flow_unit_41: = 1
 one_parent_42: edge_3_42_0_0 + edge_6_42_0_0 + edge_8_42_0_0
   + edge_12_42_0_0 + edge_15_42_0_0 + edge_16_42_0_0 + edge_18_42_0_0
   + edge_20_42_0_0 + edge_22_42_0_0 = 1
 consume_one_flow_unit_42: flow_3_42_0_0 + flow_6_42_0_0 + flow_8_42_0_0
   + flow_12_42_0_0 + flow_15_42_0_0 + flow_16_42_0_0 + flow_18_42_0_0
   + flow_20_42_0_0 + flow_22_42_0_0 - flow_42_22_0_0 = 1
 root_flow: flow_0_3_0_0 + flow_0_6_0_0 + flow_0_8_0_0 + flow_0_15_0_0
   + flow_0_16_0_0 + flow_0_20_0_0 = 42
 inactive_no_flow_0_3_0_0: flow_0_3_0_0 - 1000 edge_0_3_0_0 <= 0
 inactive_no_flow_0_6_0_0: flow_0_6_0_0 - 1000 edge_0_6_0_0 <= 0
 inactive_no_flow_0_8_0_0: flow_0_8_0_0 - 1000 edge_0_8_0_0 <= 0
 inactive_no_flow_0_15_0_0: flow_0_15_0_0 - 1000 edge_0_15_0_0 <= 0
 inactive_no_flow_0_16_0_0: flow_0_16_0_0 - 1000 edge_0_16_0_0 <= 0
 inactive_no_flow_0_20_0_0: flow_0_20_0_0 - 1000 edge_0_20_0_0 <= 0
 inactive_no_flow_3_5_0_0: flow_3_5_0_0 - 1000 edge_3_5_0_0 <= 0
 inactive_no_flow_3_6_0_0: flow_3_6_0_0 - 1000 edge_3_6_0_0 <= 0
 inactive_no_flow_3_7_0_0: flow_3_7_0_0 - 1000 edge_3_7_0_0 <= 0
 inactive_no_flow_3_8_0_0: flow_3_8_0_0 - 1000 edge_3_8_0_0 <= 0
 inactive_no_flow_3_9_0_0: flow_3_9_0_0 - 1000 edge_3_9_0_0 <= 0
 inactive_no_flow_3_10_0_0: flow_3_10_0_0 - 1000 edge_3_10_0_0 <= 0
 inactive_no_flow_3_12_0_0: flow_3_12_0_0 - 1000 edge_3_12_0_0 <= 0
 inactive_no_flow_3_14_0_0: flow_3_14_0_0 - 1000 edge_3_14_0_0 <= 0
 inactive_no_flow_3_15_0_0: flow_3_15_0_0 - 1000 edge_3_15_0_0 <= 0
 inactive_no_flow_3_16_0_0: flow_3_16_0_0 - 1000 edge_3_16_0_0 <= 0
 inactive_no_flow_3_18_0_0: flow_3_18_0_0 - 1000 edge_3_18_0_0 <= 0
 inactive_no_flow_3_20_0_0: flow_3_20_0_0 - 1000 edge_3_20_0_0 <= 0
 inactive_no_flow_3_22_0_0: flow_3_22_0_0 - 1000 edge_3_22_0_0 <= 0
 inactive_no_flow_3_42_0_0: flow_3_42_0_0 - 1000 edge_3_42_0_0 <= 0
 inactive_no_flow_5_3_0_0: flow_5_3_0_0 - 1000 edge_5_3_0_0 <= 0
 inactive_no_flow_5_7_0_0: flow_5_7_0_0 - 1000 edge_5_7_0_0 <= 0
 inactive_no_flow_5_8_0_0: flow_5_8_0_0 - 1000 edge_5_8_0_0 <= 0
 inactive_no_flow_6_3_0_0: flow_6_3_0_0 - 1000 edge_6_3_0_0 <= 0
 inactive_no_flow_6_5_0_0: flow_6_5_0_0 - 1000 edge_6_5_0_0 <= 0
 inactive_no_flow_6_7_0_0: flow_6_7_0_0 - 1000 edge_6_7_0_0 <= 0
 inactive_no_flow_6_8_0_0: flow_6_8_0_0 - 1000 edge_6_8_0_0 <= 0
 inactive_no_flow_6_9_0_0: flow_6_9_0_0 - 1000 edge_6_9_0_0 <= 0
 inactive_no_flow_6_10_0_0: flow_6_10_0_0 - 1000 edge_6_10_0_0 <= 0
 inactive_no_flow_6_12_0_0: flow_6_12_0_0 - 1000 edge_6_12_0_0 <= 0
 inactive_no_flow_6_14_0_0: flow_6_14_0_0 - 1000 edge_6_14_0_0 <= 0
 inactive_no_flow_6_15_0_0: flow_6_15_0_0 - 1000 edge_6_15_0_0 <= 0
 inactive_no_flow_6_16_0_0: flow_6_16_0_0 - 1000 edge_6_16_0_0 <= 0
 inactive_no_flow_6_42_0_0: flow_6_42_0_0 - 1000 edge_6_42_0_0 <= 0
 inactive_no_flow_7_6_0_0: flow_7_6_0_0 - 1000 edge_7_6_0_0 <= 0
 inactive_no_flow_7_8_0_0: flow_7_8_0_0 - 1000 edge_7_8_0_0 <= 0
 inactive_no_flow_7_9_0_0: flow_7_9_0_0 - 1000 edge_7_9_0_0 <= 0
 inactive_no_flow_7_10_0_0: flow_7_10_0_0 - 1000 edge_7_10_0_0 <= 0
 inactive_no_flow_8_3_0_0: flow_8_3_0_0 - 1000 edge_8_3_0_0 <= 0
 inactive_no_flow_8_6_0_0: flow_8_6_0_0 - 1000 edge_8_6_0_0 <= 0
 inactive_no_flow_8_7_0_0: flow_8_7_0_0 - 1000 edge_8_7_0_0 <= 0
 inactive_no_flow_8_9_0_0: flow_8_9_0_0 - 1000 edge_8_9_0_0 <= 0
 inactive_no_flow_8_10_0_0: flow_8_10_0_0 - 1000 edge_8_10_0_0 <= 0
 inactive_no_flow_8_12_0_0: flow_8_12_0_0 - 1000 edge_8_12_0_0 <= 0
 inactive_no_flow_8_14_0_0: flow_8_14_0_0 - 1000 edge_8_14_0_0 <= 0
 inactive_no_flow_8_15_0_0: flow_8_15_0_0 - 1000 edge_8_15_0_0 <= 0
 inactive_no_flow_8_16_0_0: flow_8_16_0_0 - 1000 edge_8_16_0_0 <= 0
 inactive_no_flow_8_18_0_0: flow_8_18_0_0 - 1000 edge_8_18_0_0 <= 0
 inactive_no_flow_8_20_0_0: flow_8_20_0_0 - 1000 edge_8_20_0_0 <= 0
 inactive_no_flow_8_22_0_0: flow_8_22_0_0 - 1000 edge_8_22_0_0 <= 0
 inactive_no_flow_8_42_0_0: flow_8_42_0_0 - 1000 edge_8_42_0_0 <= 0
 inactive_no_flow_9_8_0_0: flow_9_8_0_0 - 1000 edge_9_8_0_0 <= 0
 inactive_no_flow_9_10_0_0: flow_9_10_0_0 - 1000 edge_9_10_0_0 <= 0
 inactive_no_flow_10_8_0_0: flow_10_8_0_0 - 1000 edge_10_8_0_0 <= 0
 inactive_no_flow_10_9_0_0: flow_10_9_0_0 - 1000 edge_10_9_0_0 <= 0
 inactive_no_flow_10_12_0_0: flow_10_12_0_0 - 1000 edge_10_12_0_0 <= 0
 inactive_no_flow_10_14_0_0: flow_10_14_0_0 - 1000 edge_10_14_0_0 <= 0
 inactive_no_flow_12_3_0_0: flow_12_3_0_0 - 1000 edge_12_3_0_0 <= 0
 inactive_no_flow_12_6_0_0: flow_12_6_0_0 - 1000 edge_12_6_0_0 <= 0
 inactive_no_flow_12_9_0_0: flow_12_9_0_0 - 1000 edge_12_9_0_0 <= 0
 inactive_no_flow_12_10_0_0: flow_12_10_0_0 - 1000 edge_12_10_0_0 <= 0
 inactive_no_flow_12_13_0_0: flow_12_13_0_0 - 1000 edge_12_13_0_0 <= 0
 inactive_no_flow_12_14_0_0: flow_12_14_0_0 - 1000 edge_12_14_0_0 <= 0
 inactive_no_flow_12_15_0_0: flow_12_15_0_0 - 1000 edge_12_15_0_0 <= 0
 inactive_no_flow_12_16_0_0: flow_12_16_0_0 - 1000 edge_12_16_0_0 <= 0
 inactive_no_flow_12_17_0_0: flow_12_17_0_0 - 1000 edge_12_17_0_0 <= 0
 inactive_no_flow_12_18_0_0: flow_12_18_0_0 - 1000 edge_12_18_0_0 <= 0
 inactive_no_flow_12_20_0_0: flow_12_20_0_0 - 1000 edge_12_20_0_0 <= 0
 inactive_no_flow_12_22_0_0: flow_12_22_0_0 - 1000 edge_12_22_0_0 <= 0
 inactive_no_flow_12_42_0_0: flow_12_42_0_0 - 1000 edge_12_42_0_0 <= 0
 inactive_no_flow_13_14_0_0: flow_13_14_0_0 - 1000 edge_13_14_0_0 <= 0
 inactive_no_flow_13_15_0_0: flow_13_15_0_0 - 1000 edge_13_15_0_0 <= 0
 inactive_no_flow_14_3_0_0: flow_14_3_0_0 - 1000 edge_14_3_0_0 <= 0
 inactive_no_flow_14_6_0_0: flow_14_6_0_0 - 1000 edge_14_6_0_0 <= 0
 inactive_no_flow_14_8_0_0: flow_14_8_0_0 - 1000 edge_14_8_0_0 <= 0
 inactive_no_flow_14_9_0_0: flow_14_9_0_0 - 1000 edge_14_9_0_0 <= 0
 inactive_no_flow_14_10_0_0: flow_14_10_0_0 - 1000 edge_14_10_0_0 <= 0
 inactive_no_flow_14_12_0_0: flow_14_12_0_0 - 1000 edge_14_12_0_0 <= 0
 inactive_no_flow_14_13_0_0: flow_14_13_0_0 - 1000 edge_14_13_0_0 <= 0
 inactive_no_flow_14_16_0_0: flow_14_16_0_0 - 1000 edge_14_16_0_0 <= 0
 inactive_no_flow_14_18_0_0: flow_14_18_0_0 - 1000 edge_14_18_0_0 <= 0
 inactive_no_flow_15_3_0_0: flow_15_3_0_0 - 1000 edge_15_3_0_0 <= 0
 inactive_no_flow_15_5_0_0: flow_15_5_0_0 - 1000 edge_15_5_0_0 <= 0
 inactive_no_flow_15_6_0_0: flow_15_6_0_0 - 1000 edge_15_6_0_0 <= 0
 inactive_no_flow_15_7_0_0: flow_15_7_0_0 - 1000 edge_15_7_0_0 <= 0
 inactive_no_flow_15_8_0_0: flow_15_8_0_0 - 1000 edge_15_8_0_0 <= 0
 inactive_no_flow_15_9_0_0: flow_15_9_0_0 - 1000 edge_15_9_0_0 <= 0
 inactive_no_flow_15_10_0_0: flow_15_10_0_0 - 1000 edge_15_10_0_0 <= 0
 inactive_no_flow_15_12_0_0: flow_15_12_0_0 - 1000 edge_15_12_0_0 <= 0
 inactive_no_flow_15_13_0_0: flow_15_13_0_0 - 1000 edge_15_13_0_0 <= 0
 inactive_no_flow_15_14_0_0: flow_15_14_0_0 - 1000 edge_15_14_0_0 <= 0
 inactive_no_flow_15_16_0_0: flow_15_16_0_0 - 1000 edge_15_16_0_0 <= 0
 inactive_no_flow_15_17_0_0: flow_15_17_0_0 - 1000 edge_15_17_0_0 <= 0
 inactive_no_flow_15_18_0_0: flow_15_18_0_0 - 1000 edge_15_18_0_0 <= 0
 inactive_no_flow_15_20_0_0: flow_15_20_0_0 - 1000 edge_15_20_0_0 <= 0
 inactive_no_flow_15_22_0_0: flow_15_22_0_0 - 1000 edge_15_22_0_0 <= 0
 inactive_no_flow_15_42_0_0: flow_15_42_0_0 - 1000 edge_15_42_0_0 <= 0
 inactive_no_flow_16_3_0_0: flow_16_3_0_0 - 1000 edge_16_3_0_0 <= 0
 inactive_no_flow_16_6_0_0: flow_16_6_0_0 - 1000 edge_16_6_0_0 <= 0
 inactive_no_flow_16_8_0_0: flow_16_8_0_0 - 1000 edge_16_8_0_0 <= 0
 inactive_no_flow_16_9_0_0: flow_16_9_0_0 - 1000 edge_16_9_0_0 <= 0
 inactive_no_flow_16_10_0_0: flow_16_10_0_0 - 1000 edge_16_10_0_0 <= 0
 inactive_no_flow_16_12_0_0: flow_16_12_0_0 - 1000 edge_16_12_0_0 <= 0
 inactive_no_flow_16_13_0_0: flow_16_13_0_0 - 1000 edge_16_13_0_0 <= 0
 inactive_no_flow_16_14_0_0: flow_16_14_0_0 - 1000 edge_16_14_0_0 <= 0
 inactive_no_flow_16_15_0_0: flow_16_15_0_0 - 1000 edge_16_15_0_0 <= 0
 inactive_no_flow_16_17_0_0: flow_16_17_0_0 - 1000 edge_16_17_0_0 <= 0
 inactive_no_flow_16_18_0_0: flow_16_18_0_0 - 1000 edge_16_18_0_0 <= 0
 inactive_no_flow_16_20_0_0: flow_16_20_0_0 - 1000 edge_16_20_0_0 <= 0
 inactive_no_flow_16_22_0_0: flow_16_22_0_0 - 1000 edge_16_22_0_0 <= 0
 inactive_no_flow_16_42_0_0: flow_16_42_0_0 - 1000 edge_16_42_0_0 <= 0
 inactive_no_flow_17_18_0_0: flow_17_18_0_0 - 1000 edge_17_18_0_0 <= 0
 inactive_no_flow_17_20_0_0: flow_17_20_0_0 - 1000 edge_17_20_0_0 <= 0
 inactive_no_flow_17_22_0_0: flow_17_22_0_0 - 1000 edge_17_22_0_0 <= 0
 inactive_no_flow_18_12_0_0: flow_18_12_0_0 - 1000 edge_18_12_0_0 <= 0
 inactive_no_flow_18_13_0_0: flow_18_13_0_0 - 1000 edge_18_13_0_0 <= 0
 inactive_no_flow_18_14_0_0: flow_18_14_0_0 - 1000 edge_18_14_0_0 <= 0
 inactive_no_flow_18_15_0_0: flow_18_15_0_0 - 1000 edge_18_15_0_0 <= 0
 inactive_no_flow_18_16_0_0: flow_18_16_0_0 - 1000 edge_18_16_0_0 <= 0
 inactive_no_flow_18_17_0_0: flow_18_17_0_0 - 1000 edge_18_17_0_0 <= 0
 inactive_no_flow_18_20_0_0: flow_18_20_0_0 - 1000 edge_18_20_0_0 <= 0
 inactive_no_flow_18_22_0_0: flow_18_22_0_0 - 1000 edge_18_22_0_0 <= 0
 inactive_no_flow_18_42_0_0: flow_18_42_0_0 - 1000 edge_18_42_0_0 <= 0
 inactive_no_flow_20_3_0_0: flow_20_3_0_0 - 1000 edge_20_3_0_0 <= 0
 inactive_no_flow_20_6_0_0: flow_20_6_0_0 - 1000 edge_20_6_0_0 <= 0
 inactive_no_flow_20_13_0_0: flow_20_13_0_0 - 1000 edge_20_13_0_0 <= 0
 inactive_no_flow_20_17_0_0: flow_20_17_0_0 - 1000 edge_20_17_0_0 <= 0
 inactive_no_flow_20_18_0_0: flow_20_18_0_0 - 1000 edge_20_18_0_0 <= 0
 inactive_no_flow_20_22_0_0: flow_20_22_0_0 - 1000 edge_20_22_0_0 <= 0
 inactive_no_flow_20_42_0_0: flow_20_42_0_0 - 1000 edge_20_42_0_0 <= 0
 inactive_no_flow_22_3_0_0: flow_22_3_0_0 - 1000 edge_22_3_0_0 <= 0
 inactive_no_flow_22_6_0_0: flow_22_6_0_0 - 1000 edge_22_6_0_0 <= 0
 inactive_no_flow_22_9_0_0: flow_22_9_0_0 - 1000 edge_22_9_0_0 <= 0
 inactive_no_flow_22_12_0_0: flow_22_12_0_0 - 1000 edge_22_12_0_0 <= 0
 inactive_no_flow_22_13_0_0: flow_22_13_0_0 - 1000 edge_22_13_0_0 <= 0
 inactive_no_flow_22_15_0_0: flow_22_15_0_0 - 1000 edge_22_15_0_0 <= 0
 inactive_no_flow_22_16_0_0: flow_22_16_0_0 - 1000 edge_22_16_0_0 <= 0
 inactive_no_flow_22_17_0_0: flow_22_17_0_0 - 1000 edge_22_17_0_0 <= 0
 inactive_no_flow_22_18_0_0: flow_22_18_0_0 - 1000 edge_22_18_0_0 <= 0
 inactive_no_flow_22_20_0_0: flow_22_20_0_0 - 1000 edge_22_20_0_0 <= 0
 inactive_no_flow_22_42_0_0: flow_22_42_0_0 - 1000 edge_22_42_0_0 <= 0
 inactive_no_flow_42_22_0_0: flow_42_22_0_0 - 1000 edge_42_22_0_0 <= 0
Bounds
Binaries
 edge_0_3_0_0 edge_0_6_0_0 edge_0_8_0_0 edge_0_15_0_0 edge_0_16_0_0
 edge_0_20_0_0 edge_3_5_0_0 edge_3_6_0_0 edge_3_7_0_0 edge_3_8_0_0
 edge_3_9_0_0 edge_3_10_0_0 edge_3_12_0_0 edge_3_14_0_0 edge_3_15_0_0
 edge_3_16_0_0 edge_3_18_0_0 edge_3_20_0_0 edge_3_22_0_0 edge_3_42_0_0
 edge_5_3_0_0 edge_5_7_0_0 edge_5_8_0_0 edge_6_3_0_0 edge_6_5_0_0
 edge_6_7_0_0 edge_6_8_0_0 edge_6_9_0_0 edge_6_10_0_0 edge_6_12_0_0
 edge_6_14_0_0 edge_6_15_0_0 edge_6_16_0_0 edge_6_42_0_0 edge_7_6_0_0
 edge_7_8_0_0 edge_7_9_0_0 edge_7_10_0_0 edge_8_3_0_0 edge_8_6_0_0
 edge_8_7_0_0 edge_8_9_0_0 edge_8_10_0_0 edge_8_12_0_0 edge_8_14_0_0
 edge_8_15_0_0 edge_8_16_0_0 edge_8_18_0_0 edge_8_20_0_0 edge_8_22_0_0
 edge_8_42_0_0 edge_9_8_0_0 edge_9_10_0_0 edge_10_8_0_0 edge_10_9_0_0
 edge_10_12_0_0 edge_10_14_0_0 edge_12_3_0_0 edge_12_6_0_0 edge_12_9_0_0
 edge_12_10_0_0 edge_12_13_0_0 edge_12_14_0_0 edge_12_15_0_0 edge_12_16_0_0
 edge_12_17_0_0 edge_12_18_0_0 edge_12_20_0_0 edge_12_22_0_0 edge_12_42_0_0
 edge_13_14_0_0 edge_13_15_0_0 edge_14_3_0_0 edge_14_6_0_0 edge_14_8_0_0
 edge_14_9_0_0 edge_14_10_0_0 edge_14_12_0_0 edge_14_13_0_0 edge_14_16_0_0
 edge_14_18_0_0 edge_15_3_0_0 edge_15_5_0_0 edge_15_6_0_0 edge_15_7_0_0
 edge_15_8_0_0 edge_15_9_0_0 edge_15_10_0_0 edge_15_12_0_0 edge_15_13_0_0
 edge_15_14_0_0 edge_15_16_0_0 edge_15_17_0_0 edge_15_18_0_0 edge_15_20_0_0
 edge_15_22_0_0 edge_15_42_0_0 edge_16_3_0_0 edge_16_6_0_0 edge_16_8_0_0
 edge_16_9_0_0 edge_16_10_0_0 edge_16_12_0_0 edge_16_13_0_0 edge_16_14_0_0
 edge_16_15_0_0 edge_16_17_0_0 edge_16_18_0_0 edge_16_20_0_0 edge_16_22_0_0
 edge_16_42_0_0 edge_17_18_0_0 edge_17_20_0_0 edge_17_22_0_0 edge_18_12_0_0
 edge_18_13_0_0 edge_18_14_0_0 edge_18_15_0_0 edge_18_16_0_0 edge_18_17_0_0
 edge_18_20_0_0 edge_18_22_0_0 edge_18_42_0_0 edge_20_3_0_0 edge_20_6_0_0
 edge_20_13_0_0 edge_20_17_0_0 edge_20_18_0_0 edge_20_22_0_0 edge_20_42_0_0
 edge_22_3_0_0 edge_22_6_0_0 edge_22_9_0_0 edge_22_12_0_0 edge_22_13_0_0
 edge_22_15_0_0 edge_22_16_0_0 edge_22_17_0_0 edge_22_18_0_0 edge_22_20_0_0
 edge_22_42_0_0 edge_42_22_0_0
End
